Reading model...
...model read.
creating competitive generators file...
...competitive generators recorded.
Loading data...
.. real-time data read.
Compiling instance...
...instance created.
Creating Offer Mitigation (model will solve as dispatch if TRUE)...
NOTE: storage offers will not be mitigated
...storage offer mitigation file created
Converting model to MPEC...
...converted
NOTE: initial MIP solve with only storage competitive to get feasible solution
Solving...

Welcome to IBM(R) ILOG(R) CPLEX(R) Interactive Optimizer 12.9.0.0
  with Simplex, Mixed Integer & Barrier Optimizers
5725-A06 5725-A29 5724-Y48 5724-Y49 5724-Y54 5724-Y55 5655-Y21
Copyright IBM Corp. 1988, 2019.  All Rights Reserved.

Type 'help' for a list of available commands.
Type 'help' followed by a command name for more
information on commands.

CPLEX> Logfile 'cplex.log' closed.
Logfile 'C:\Users\llavin\Desktop\test826\logs\tmp9ds4hwnj.cplex.log' open.
CPLEX> New value for parallel optimization mode: -1
CPLEX> New value for mixed integer optimality gap tolerance: 0.01
CPLEX> New value for emphasis for MIP optimization: 1
CPLEX> New value for integrality tolerance: 1e-12
CPLEX> New value for deterministic time limit in ticks: 150000
CPLEX> Problem 'C:\Users\llavin\Desktop\test826\logs\tmpaa36ucl6.pyomo.lp' read.
Read time = 0.55 sec. (28.20 ticks)
CPLEX> Problem name         : C:\Users\llavin\Desktop\test826\logs\tmpaa36ucl6.pyomo.lp
Objective sense      : Maximize
Variables            :  107795  [Nneg: 1,  Box: 44062,  Free: 8928,
                                 Binary: 54804]
Objective nonzeros   :   18912
Linear constraints   :  247027  [Less: 82874,  Greater: 118442,  Equal: 45711]
  Nonzeros           :  626657
  RHS nonzeros       :  136533

Variables            : Min LB: -5000.000        Max UB: 1000000.       
Objective nonzeros   : Min   : 0.01666667       Max   : 180.0000       
Linear constraints   :
  Nonzeros           : Min   : 0.01666667       Max   : 1000000.       
  RHS nonzeros       : Min   : 0.001000000      Max   : 1000000.       
CPLEX> CPXPARAM_Parallel                                -1
CPXPARAM_Emphasis_MIP                            1
CPXPARAM_DetTimeLimit                            150000
CPXPARAM_MIP_Tolerances_MIPGap                   0.01
CPXPARAM_MIP_Tolerances_Integrality              9.9999999999999998e-13
Tried aggregator 3 times.
MIP Presolve eliminated 173814 rows and 34618 columns.
MIP Presolve added 7676 rows and 0 columns.
MIP Presolve modified 53048 coefficients.
Aggregator did 25998 substitutions.
Reduced MIP has 54891 rows, 46795 columns, and 156638 nonzeros.
Reduced MIP has 18539 binaries, 0 generals, 0 SOSs, and 0 indicators.
Presolve time = 0.66 sec. (362.13 ticks)
Probing fixed 840 vars, tightened 19001 bounds.
Probing time = 0.47 sec. (19.55 ticks)
Tried aggregator 2 times.
MIP Presolve eliminated 1869 rows and 1683 columns.
MIP Presolve modified 7004 coefficients.
Aggregator did 97 substitutions.
Reduced MIP has 52925 rows, 45015 columns, and 150911 nonzeros.
Reduced MIP has 17699 binaries, 0 generals, 0 SOSs, and 0 indicators.
Presolve time = 0.30 sec. (267.56 ticks)
Probing fixed 0 vars, tightened 386 bounds.
Probing time = 0.61 sec. (19.68 ticks)
Clique table members: 87098.
MIP emphasis: integer feasibility.
MIP search method: dynamic search.
Parallel mode: opportunistic, using up to 32 threads.
Root relaxation solution time = 1.30 sec. (2206.93 ticks)

        Nodes                                         Cuts/
   Node  Left     Objective  IInf  Best Integer    Best Bound    ItCnt     Gap

      0     0        0.0000   170                      0.0000    11533         
*     0+    0                            0.0000        0.0000             0.00%
      0     0        cutoff              0.0000        0.0000    11533    0.00%
Elapsed time = 4.31 sec. (3711.55 ticks, tree = 0.01 MB, solutions = 1)

Root node processing (before b&c):
  Real time             =    4.36 sec. (3715.55 ticks)
Parallel b&c, 32 threads:
  Real time             =    0.00 sec. (0.00 ticks)
  Sync time (average)   =    0.00 sec.
  Wait time (average)   =    0.00 sec.
                          ------------
Total (root+branch&cut) =    4.36 sec. (3715.55 ticks)

Solution pool: 1 solution saved.

MIP - Integer optimal solution:  Objective =  5.2853010857e-10
Solution time =    4.38 sec.  Iterations = 11533  Nodes = 0
Deterministic time = 3715.86 ticks  (849.34 ticks/sec)

CPLEX> Incumbent solution written to file 'C:\Users\llavin\Desktop\test826\logs\tmppc3fwzrb.cplex.sol'.
CPLEX> NOTE: no warmstart specified for MIP iteration, default behavior is true
NOTE: resolving with all competitive generators using storage-only solution to warmstart
Solving...

Welcome to IBM(R) ILOG(R) CPLEX(R) Interactive Optimizer 12.9.0.0
  with Simplex, Mixed Integer & Barrier Optimizers
5725-A06 5725-A29 5724-Y48 5724-Y49 5724-Y54 5724-Y55 5655-Y21
Copyright IBM Corp. 1988, 2019.  All Rights Reserved.

Type 'help' for a list of available commands.
Type 'help' followed by a command name for more
information on commands.

CPLEX> Logfile 'cplex.log' closed.
Logfile 'C:\Users\llavin\Desktop\test826\logs\tmpb0zt6d09.cplex.log' open.
CPLEX> New value for parallel optimization mode: -1
CPLEX> New value for mixed integer optimality gap tolerance: 0.01
CPLEX> New value for emphasis for MIP optimization: 1
CPLEX> New value for integrality tolerance: 1e-12
CPLEX> New value for deterministic time limit in ticks: 150000
CPLEX> Problem 'C:\Users\llavin\Desktop\test826\logs\tmpl56m2nxu.pyomo.lp' read.
Read time = 0.55 sec. (28.25 ticks)
CPLEX> MIP start file 'C:\Users\llavin\Desktop\test826\logs\tmpzq9li50d.cplex.mst' read.
CPLEX> Problem name         : C:\Users\llavin\Desktop\test826\logs\tmpl56m2nxu.pyomo.lp
Objective sense      : Maximize
Variables            :  109235  [Nneg: 1,  Box: 45502,  Free: 8928,
                                 Binary: 54804]
Objective nonzeros   :   20304
Linear constraints   :  247027  [Less: 82874,  Greater: 118442,  Equal: 45711]
  Nonzeros           :  626657
  RHS nonzeros       :  136533

Variables            : Min LB: -5000.000        Max UB: 1000000.       
Objective nonzeros   : Min   : 0.01666667       Max   : 180.0000       
Linear constraints   :
  Nonzeros           : Min   : 0.01666667       Max   : 1000000.       
  RHS nonzeros       : Min   : 0.001000000      Max   : 1000000.       
CPLEX> CPXPARAM_Parallel                                -1
CPXPARAM_Emphasis_MIP                            1
CPXPARAM_DetTimeLimit                            150000
CPXPARAM_MIP_Tolerances_MIPGap                   0.01
CPXPARAM_MIP_Tolerances_Integrality              9.9999999999999998e-13
Warning:  No solution found from 1 MIP starts.
Retaining values of one MIP start for possible repair.
Tried aggregator 3 times.
MIP Presolve eliminated 173814 rows and 36058 columns.
MIP Presolve added 7676 rows and 0 columns.
MIP Presolve modified 53048 coefficients.
Aggregator did 25998 substitutions.
Reduced MIP has 54891 rows, 46795 columns, and 156638 nonzeros.
Reduced MIP has 18539 binaries, 0 generals, 0 SOSs, and 0 indicators.
Presolve time = 0.67 sec. (362.90 ticks)
Probing fixed 840 vars, tightened 19001 bounds.
Probing time = 0.48 sec. (19.55 ticks)
Tried aggregator 2 times.
MIP Presolve eliminated 1869 rows and 1683 columns.
MIP Presolve modified 7004 coefficients.
Aggregator did 97 substitutions.
Reduced MIP has 52925 rows, 45015 columns, and 150911 nonzeros.
Reduced MIP has 17699 binaries, 0 generals, 0 SOSs, and 0 indicators.
Presolve time = 0.30 sec. (267.59 ticks)
Probing fixed 0 vars, tightened 386 bounds.
Probing time = 0.61 sec. (19.68 ticks)
Clique table members: 87098.
MIP emphasis: integer feasibility.
MIP search method: dynamic search.
Parallel mode: opportunistic, using up to 32 threads.
Root relaxation solution time = 1.38 sec. (2458.01 ticks)

        Nodes                                         Cuts/
   Node  Left     Objective  IInf  Best Integer    Best Bound    ItCnt     Gap

      0     0     3424.6935   343                   3424.6935    12277         
      0     0     3278.0345   129                   Cuts: 178    12438         
      0     0     3238.8169   121                    Cuts: 15    12455         
      0     0     3238.8169   122                    Cuts: 11    12462         
Repair heuristic found nothing.
*     0+    0                            0.0000     3238.8169              --- 
      0    49     2471.0235   114        0.0000  Impl Bds: 22    12942     --- 
Elapsed time = 10.17 sec. (5359.64 ticks, tree = 0.02 MB, solutions = 10)
    140     7     2562.4912   109        0.0000     3150.6297    12501     --- 
    488    81     3005.0910   112        0.0000     3150.6297    13204     --- 
    874   777      654.0472    94        0.0000     3150.6297    16511     --- 
   1353   758      266.5060    82        0.0000     3150.6297    16393     --- 
   1685  1311     1778.7509    74        0.0000     3150.6297    18467     --- 
   2018  1395     2546.5957    86        0.0000     3150.6297    18774     --- 
   2438  1974        cutoff              0.0000     3150.6297    22344     --- 
   2805  1827      696.0196   111        0.0000     3150.6297    21444     --- 
   3123  2403     2686.2029    86        0.0000     3150.6297    25096     --- 
   4700  3211     2620.3611    86        0.0000     3150.6297    30195     --- 
Elapsed time = 29.25 sec. (8466.32 ticks, tree = 45.29 MB, solutions = 10)
   5895  5295        cutoff              0.0000     3150.6297    47930     --- 
   7376   309       62.8527    60        0.0000     3150.6297    52334     --- 
   9030   131      401.1194    59        0.0000     3150.6297    50136     --- 
  10125   586     1905.9927    35        0.0000     3150.6297    56350     --- 
  11372  2872     2782.1907    38        0.0000     3150.6297    76205     --- 
  13263  2437    infeasible              0.0000     3149.6425    70852     --- 
  15157  5236        cutoff              0.0000     3149.6425   115148     --- 
  17257  4302     2804.6546    41        0.0000     3149.6425    97662     --- 
  19436  5714     2622.9815    41        0.0000     3149.6425   122163     --- 
  21637  7861     1201.6751     9        0.0000     3149.6425   132997     --- 
Elapsed time = 110.75 sec. (25384.97 ticks, tree = 125.87 MB, solutions = 10)
  23793  8753     2482.4438    27        0.0000     3149.6425   138742     --- 
  25862 11256     2326.9786    26        0.0000     3149.6425   149747     --- 
  27617 12607     2715.2363    42        0.0000     3149.6425   155418     --- 
  29627 14257     1196.9442    23        0.0000     3149.6425   162050     --- 
  31771 15672      535.2133     1        0.0000     3149.6425   168134     --- 
  33792 19934      621.8071    11        0.0000     3149.6425   185160     --- 
  35694 19505     2438.8680    26        0.0000     3149.6425   183434     --- 
  37773 20754     2231.9580    36        0.0000     3149.6425   187842     --- 
  39911 24412      995.9527    12        0.0000     3149.6425   200311     --- 
  42025 26278        cutoff              0.0000     3149.6425   207444     --- 
Elapsed time = 172.69 sec. (34925.85 ticks, tree = 449.57 MB, solutions = 10)
  44067 26425      865.7830     5        0.0000     3149.6425   207973     --- 
  45946 29676     1393.8047    15        0.0000     3149.6425   219813     --- 
  47658 29008     2451.6210    35        0.0000     3149.6425   217237     --- 
  49151 26943      976.6411     3        0.0000     3149.6425   209921     --- 
  50644 29889     2229.4588    25        0.0000     3149.6425   220791     --- 
  52144 32433      716.6714    11        0.0000     3149.6425   229523     --- 
  53704 32468     1510.5209    21        0.0000     3149.6425   229698     --- 
  55339 36268      535.2133     2        0.0000     3149.6425   244301     --- 
  56977 36295     1247.3485    15        0.0000     3149.6425   244454     --- 
  58658 35114     1172.5313    13        0.0000     3149.6425   240348     --- 
Elapsed time = 232.97 sec. (44467.34 ticks, tree = 606.72 MB, solutions = 10)
  60464 39602     1158.0993    12        0.0000     3149.6425   255349     --- 
  62167 37342      472.3409    61        0.0000     3149.6425   247773     --- 
  63703 39158      976.6411     5        0.0000     3149.6425   254122     --- 
  65032 38733      532.3009     2        0.0000     3149.6425   252643     --- 
  66282 46690     1369.9832    13        0.0000     3149.6425   282129     --- 
  67532 45810      532.0327     3        0.0000     3149.6425   278583     --- 
  68730 48189     1882.0111    17        0.0000     3149.6425   287922     --- 
  69874 46900     2219.2714    22        0.0000     3149.6425   282781     --- 
  70901 50759     2041.0159    27        0.0000     3149.6425   296732     --- 
  71967 53546     1784.3912    26        0.0000     3149.6425   305982     --- 
Elapsed time = 284.30 sec. (54011.58 ticks, tree = 947.50 MB, solutions = 10)
  72975 56341     1367.5084    15        0.0000     3149.6425   315300     --- 
  73874 55672     1618.8387    14        0.0000     3149.6425   313043     --- 
  75054 57247     1760.8505    26        0.0000     3149.6425   318291     --- 
  76400 58584     2041.0159    24        0.0000     3149.6425   322602     --- 
  78026 57898     1069.0930    24        0.0000     3149.6425   320450     --- 
  79908 65346     1428.8066    23        0.0000     3149.6425   345619     --- 
  81900 60020     1882.0111    18        0.0000     3149.6425   327258     --- 
  83890 60638     1256.2745    13        0.0000     3149.6425   329060     --- 
  85936 61104     1423.9271    20        0.0000     3149.6425   330693     --- 
  87990 66873     2413.5724    35        0.0000     3149.6425   351124     --- 
Elapsed time = 350.78 sec. (63553.26 ticks, tree = 1169.12 MB, solutions = 10)
  90123 62922      762.3448    13        0.0000     3149.6425   337022     --- 
  92088 62715     1063.2349     9        0.0000     3149.6425   336523     --- 
  94063 71605     1587.8114    24        0.0000     3149.6425   367633     --- 
  96035 73233     1618.8387    17        0.0000     3149.6425   373904     --- 
  98039 65928     1489.4891    18        0.0000     3149.6425   347694     --- 
  99986 69161      532.3009     5        0.0000     3149.6425   358046     --- 
 101804 71094      532.3009     2        0.0000     3149.6425   365845     --- 
 103526 75004     1968.7855    30        0.0000     3149.6425   380871     --- 
 105276 78806     1777.8435    24        0.0000     3149.6425   394709     --- 
 106894 78252     1841.0907    26        0.0000     3149.6425   392846     --- 
Elapsed time = 405.02 sec. (73094.45 ticks, tree = 1372.44 MB, solutions = 10)
 108570 83233     2004.8265    17        0.0000     3149.6425   412474     --- 
 109901 85071      534.4094     1        0.0000     3149.6425   419717     --- 
 111254 83329     2354.9296    33        0.0000     3149.6425   412763     --- 
 112685 77676     1882.1917    21        0.0000     3149.6425   390710     --- 
 114088 79016     2485.4476    34        0.0000     3149.6425   395345     --- 
 115297 87765      535.2133     2        0.0000     3149.6425   429550     --- 
 116278 84490     1828.2478    24        0.0000     3149.6425   417127     --- 
 116992 84806      675.7510     6        0.0000     3149.6425   418275     --- 
 117560 86464     1385.2308    20        0.0000     3149.6425   425054     --- 
 117988 86490     1605.3853    21        0.0000     3149.6425   425395     --- 
Elapsed time = 416.28 sec. (82642.22 ticks, tree = 1517.98 MB, solutions = 10)
 118196 98829        cutoff              0.0000     3149.6425   482365     --- 
 119384   108     1200.3350    30        0.0000     3149.6425   483583     --- 
 120726  1086     2357.1338    41        0.0000     3149.6425   495830     --- 
 122246  1621     2822.5622    33        0.0000     3149.6425   502148     --- 
 123890  2426     2960.4445    32        0.0000     3149.6425   509943     --- 
 125627  4538     2101.2897    24        0.0000     3149.6425   521656     --- 
 127378  5408     1867.1460    26        0.0000     3149.6425   526691     --- 
 128945  7713     1829.1638    24        0.0000     3149.6425   534135     --- 
 130669  9509     1438.1402    26        0.0000     3149.6425   539927     --- 
 132365 10571     1654.7331    23        0.0000     3149.6425   544841     --- 
Elapsed time = 492.98 sec. (99589.60 ticks, tree = 175.49 MB, solutions = 10)
 134092 12681     2422.9647    39        0.0000     3149.6425   554497     --- 
 135850 14640     2407.2812    28        0.0000     3149.6425   564244     --- 
 137538 16556      513.1144    28        0.0000     3149.6425   572066     --- 
 139292 16407     2241.2916    37        0.0000     3149.6425   571542     --- 
 140970 15932     1611.7151    28        0.0000     3149.6425   569878     --- 
 142566 17987     2059.8335    30        0.0000     3149.6425   576293     --- 
 144189 20536     1447.5266    31        0.0000     3149.6425   586023     --- 
 146038 21590     1729.2637    27        0.0000     3149.6425   588831     --- 
 147834 22437     2241.2916    40        0.0000     3149.6425   591453     --- 
 154779 27315     2241.2916    39        0.0000     3147.1857   608540     --- 
Elapsed time = 568.22 sec. (111989.46 ticks, tree = 464.02 MB, solutions = 10)
 161428 34057     2588.7393    30        0.0000     3147.1857   636549     --- 
 167468 38556     2422.9060    35        0.0000     3147.1857   654581     --- 
 173795 42872     1924.8025    36        0.0000     3147.1857   675245     --- 
 179534 49818     1927.7148    34        0.0000     3147.1857   716503     --- 
 184983 53220    infeasible              0.0000     3147.1857   740146     --- 
 189892 56345     1924.8025    34        0.0000     3147.1857   761297     --- 
 194995 59252     1978.1191    33        0.0000     3147.1857   781388     --- 
 200356 63660     1909.2285    42        0.0000     3147.1857   814648     --- 
 205632 66065        cutoff              0.0000     3147.1857   834742     --- 

Cover cuts applied:  12
Flow cuts applied:  118
Mixed integer rounding cuts applied:  16
Lift and project cuts applied:  30
Gomory fractional cuts applied:  22

Root node processing (before b&c):
  Real time             =    6.98 sec. (5306.41 ticks)
Parallel b&c, 32 threads:
  Real time             =  757.22 sec. (144726.53 ticks)
  Sync time (average)   =    7.15 sec.
  Wait time (average)   =    0.99 sec.
                          ------------
Total (root+branch&cut) =  764.20 sec. (150032.94 ticks)

Solution pool: 10 solutions saved.

MIP - Deterministic time limit exceeded, integer feasible:  Objective =  3.1806233665e-06
Current MIP best bound =  3.1471856781e+03 (gap = 3147.19, 9.9e+10%)
Solution time =  764.23 sec.  Iterations = 885120  Nodes = 208696 (71957)
Deterministic time = 150033.25 ticks  (196.32 ticks/sec)

CPLEX> Incumbent solution written to file 'C:\Users\llavin\Desktop\test826\logs\tmpll7vyn8n.cplex.sol'.
CPLEX> Exporting results... 
